NAME : ftv50.66.2150.tour
COMMENT : Length = 2150
COMMENT : Found by LKH [Keld Helsgaun] Tue Dec 11 00:01:47 2018
TYPE : TOUR
DIMENSION : 37
TOUR_SECTION
1
16
17
2
4
13
6
9
12
15
27
3
33
36
32
31
26
25
28
29
23
22
20
11
34
19
18
21
24
30
37
5
7
8
35
10
14
-1
EOF
